p cnf 20 11
e 1 0
a 2 0
e 3 0
a 4 0
e 5 0
a 6 0
e 7 0
a 8 9 0
e 10 11 12 0
a 13 14 15 16 0
e 17 0
a 18 0
e 19 20 0
-7 12 6 -15 0
1 20 -2 -15 -8 0
12 -6 -1 3 -13 0
6 -3 12 13 20 0
-17 13 -11 0
20 -12 -7 10 0
1 11 0
-2 14 1 16 0
9 -4 15 -19 -2 0
17 2 -8 3 12 0
-5 -17 12 7 0
